     Program PWSCF v.5.2.1 (svn rev. 11758) starts on 23Nov2024 at  3:15:49

     Current dimensions of program PWSCF are:
     Max number of different atomic species (ntypx) = 10
     Max number of k-points (npk) =  40000
     Max angular momentum in pseudopotentials (lmaxx) =  3

     Subspace diagonalization in iterative solution of the eigenvalue problem:
     a serial algorithm will be used

     Found symmetry operation: I + (  0.5000 -0.5000 -0.5000)
     This is a supercell, fractional translations are disabled

     bravais-lattice index     =            0
     lattice parameter (alat)  =       6.4842  a.u.
     unit-cell volume          =     919.8275 (a.u.)^3
     number of atoms/cell      =            8
     number of atomic types    =            2
     number of electrons       =        72.00
     number of Kohn-Sham states=           43
     kinetic-energy cutoff     =      45.0000  Ry
     charge density cutoff     =     360.0000  Ry
     convergence threshold     =      1.6E-09
     mixing beta               =       0.4000
     number of iterations used =            8  plain     mixing
     Exchange-correlation      = SLA  PW   PSX  PSC ( 1  4 10  8 0 0)

     celldm(1)=   6.484232  celldm(2)=   0.000000  celldm(3)=   0.000000
     celldm(4)=   0.000000  celldm(5)=   0.000000  celldm(6)=   0.000000

     crystal axes: (cart. coord. in units of alat)
               a(1) = (   1.000000   0.000000   0.000000 )
               a(2) = (   0.000000   1.000000   0.000000 )
               a(3) = (   0.000000   0.000000   3.373889 )

     reciprocal axes: (cart. coord. in units 2 pi/alat)
               b(1) = (  1.000000  0.000000  0.000000 )
               b(2) = (  0.000000  1.000000  0.000000 )
               b(3) = (  0.000000  0.000000  0.296394 )

     PseudoPot. # 1 for As read from file:
     ./pseudo/As.pbesol-n-rrkjus_psl.0.2.UPF
     MD5 check sum: 1aa86e6aa4f77befd3aa87cac6788838
     Pseudo is Ultrasoft + core correction, Zval =  5.0
     Generated using "atomic" code by A. Dal Corso  v.6.0 svn rev. 13079
     Using radial grid of 1209 points,  4 beta functions with:
                l(1) =   0
                l(2) =   0
                l(3) =   1
                l(4) =   1
     Q(r) pseudized with 0 coefficients

     PseudoPot. # 2 for Ta read from file:
     ./pseudo/ta_pbesol_v1.uspp.F.UPF
     MD5 check sum: 5dd23d6859724cbb2c0d9b6294d5f84c
     Pseudo is Ultrasoft + core correction, Zval = 13.0
     Generated by new atomic code, or converted to UPF format
     Using radial grid of  921 points,  7 beta functions with:
                l(1) =   0
                l(2) =   0
                l(3) =   1
                l(4) =   1
                l(5) =   2
                l(6) =   2
                l(7) =   3
     Q(r) pseudized with  6 coefficients,  rinner =    1.300   1.300   1.300
                                                       1.300   1.300   1.300
                                                       1.300

     atomic species   valence    mass     pseudopotential
        As             5.00    74.92160     As( 1.00)
        Ta            13.00   180.94788     Ta( 1.00)

      4 Sym. Ops. (no inversion) found

                                    s                        frac. trans.

      isym =  1     identity

 cryst.   s( 1) = (     1          0          0      )
                  (     0          1          0      )
                  (     0          0          1      )

 cart.    s( 1) = (  1.0000000  0.0000000  0.0000000 )
                  (  0.0000000  1.0000000  0.0000000 )
                  (  0.0000000  0.0000000  1.0000000 )

      isym =  2     180 deg rotation - cart. axis [0,0,1]

[...]

      isym =  3     inv. 180 deg rotation - cart. axis [0,1,0]

[...]

      isym =  4     inv. 180 deg rotation - cart. axis [1,0,0]

 cryst.   s( 4) = (    -1          0          0      )
                  (     0          1          0      )
                  (     0          0          1      )

 cart.    s( 4) = ( -1.0000000  0.0000000  0.0000000 )
                  (  0.0000000  1.0000000  0.0000000 )
                  (  0.0000000  0.0000000  1.0000000 )

     point group C_2v (mm2)
     there are  4 classes
     the character table:

       E     C2    s_v   s_v'
A_1    1.00  1.00  1.00  1.00
A_2    1.00  1.00 -1.00 -1.00
B_1    1.00 -1.00  1.00 -1.00
B_2    1.00 -1.00 -1.00  1.00

     the symmetry operations in each class and the name of the first element:

     E        1
          identity
     C2       2
          180 deg rotation - cart. axis [0,0,1]
     s_v      3
          inv. 180 deg rotation - cart. axis [0,1,0]
     s_v'     4
          inv. 180 deg rotation - cart. axis [1,0,0]

   Cartesian axes

     site n.     atom                  positions (alat units)
         1           Ta  tau(   1) = (   0.5000000   0.0000000   0.8433508  )
         2           Ta  tau(   2) = (   0.5000000   0.5000000   3.3737718  )
         3           Ta  tau(   3) = (   0.0000000   0.5000000   2.5302988  )
         4           Ta  tau(   4) = (   0.0000000   0.0000000   1.6868289  )
         5           As  tau(   5) = (   0.0000000   0.5000000   0.5659170  )
         6           As  tau(   6) = (   0.0000000   0.0000000   3.0963375  )
         7           As  tau(   7) = (   0.5000000   0.0000000   2.2528632  )
         8           As  tau(   8) = (   0.5000000   0.5000000   1.4093936  )

   Crystallographic axes

     site n.     atom                  positions (cryst. coord.)
         1           Ta  tau(   1) = (  0.5000000  0.0000000  0.2499640  )
         2           Ta  tau(   2) = (  0.5000000  0.5000000  0.9999652  )
         3           Ta  tau(   3) = (  0.0000000  0.5000000  0.7499650  )
         4           Ta  tau(   4) = (  0.0000000  0.0000000  0.4999657  )
         5           As  tau(   5) = (  0.0000000  0.5000000  0.1677343  )
         6           As  tau(   6) = (  0.0000000  0.0000000  0.9177354  )
         7           As  tau(   7) = (  0.5000000  0.0000000  0.6677348  )
         8           As  tau(   8) = (  0.5000000  0.5000000  0.4177356  )

     number of k points=   162  Marzari-Vanderbilt smearing, width (Ry)=  0.0147
                       cart. coord. in units 2pi/alat
        k(    1) = (   0.0000000   0.0000000   0.0000000), wk =   0.0026042
        k(    2) = (   0.0000000   0.0000000   0.0987980), wk =   0.0052083
        k(    3) = (   0.0000000   0.0625000   0.0000000), wk =   0.0052083
        k(    4) = (   0.0000000   0.0625000   0.0987980), wk =   0.0104167
        k(    5) = (   0.0000000   0.1250000   0.0000000), wk =   0.0052083
        k(    6) = (   0.0000000   0.1250000   0.0987980), wk =   0.0104167
        k(    7) = (   0.0000000   0.1875000   0.0000000), wk =   0.0052083
        k(    8) = (   0.0000000   0.1875000   0.0987980), wk =   0.0104167
        k(    9) = (   0.0000000   0.2500000   0.0000000), wk =   0.0052083
        k(   10) = (   0.0000000   0.2500000   0.0987980), wk =   0.0104167
        k(   11) = (   0.0000000   0.3125000   0.0000000), wk =   0.0052083
        k(   12) = (   0.0000000   0.3125000   0.0987980), wk =   0.0104167
        k(   13) = (   0.0000000   0.3750000   0.0000000), wk =   0.0052083
        k(   14) = (   0.0000000   0.3750000   0.0987980), wk =   0.0104167
        k(   15) = (   0.0000000   0.4375000   0.0000000), wk =   0.0052083
        k(   16) = (   0.0000000   0.4375000   0.0987980), wk =   0.0104167
        k(   17) = (   0.0000000  -0.5000000   0.0000000), wk =   0.0026042
        k(   18) = (   0.0000000  -0.5000000   0.0987980), wk =   0.0052083
        k(   19) = (   0.0625000   0.0625000   0.0000000), wk =   0.0104167
        k(   20) = (   0.0625000   0.0625000   0.0987980), wk =   0.0208333
        k(   21) = (   0.0625000   0.1250000   0.0000000), wk =   0.0104167
        k(   22) = (   0.0625000   0.1250000   0.0987980), wk =   0.0208333
        k(   23) = (   0.0625000   0.1875000   0.0000000), wk =   0.0104167
        k(   24) = (   0.0625000   0.1875000   0.0987980), wk =   0.0208333
        k(   25) = (   0.0625000   0.2500000   0.0000000), wk =   0.0104167
        k(   26) = (   0.0625000   0.2500000   0.0987980), wk =   0.0208333
        k(   27) = (   0.0625000   0.3125000   0.0000000), wk =   0.0104167
        k(   28) = (   0.0625000   0.3125000   0.0987980), wk =   0.0208333
        k(   29) = (   0.0625000   0.3750000   0.0000000), wk =   0.0104167
        k(   30) = (   0.0625000   0.3750000   0.0987980), wk =   0.0208333
        k(   31) = (   0.0625000   0.4375000   0.0000000), wk =   0.0104167
        k(   32) = (   0.0625000   0.4375000   0.0987980), wk =   0.0208333
        k(   33) = (   0.0625000  -0.5000000   0.0000000), wk =   0.0052083
        k(   34) = (   0.0625000  -0.5000000   0.0987980), wk =   0.0104167
        k(   35) = (   0.1250000   0.1250000   0.0000000), wk =   0.0104167
        k(   36) = (   0.1250000   0.1250000   0.0987980), wk =   0.0208333
        k(   37) = (   0.1250000   0.1875000   0.0000000), wk =   0.0104167
        k(   38) = (   0.1250000   0.1875000   0.0987980), wk =   0.0208333
        k(   39) = (   0.1250000   0.2500000   0.0000000), wk =   0.0104167
        k(   40) = (   0.1250000   0.2500000   0.0987980), wk =   0.0208333
        k(   41) = (   0.1250000   0.3125000   0.0000000), wk =   0.0104167
        k(   42) = (   0.1250000   0.3125000   0.0987980), wk =   0.0208333
        k(   43) = (   0.1250000   0.3750000   0.0000000), wk =   0.0104167
        k(   44) = (   0.1250000   0.3750000   0.0987980), wk =   0.0208333
        k(   45) = (   0.1250000   0.4375000   0.0000000), wk =   0.0104167
        k(   46) = (   0.1250000   0.4375000   0.0987980), wk =   0.0208333
        k(   47) = (   0.1250000  -0.5000000   0.0000000), wk =   0.0052083
        k(   48) = (   0.1250000  -0.5000000   0.0987980), wk =   0.0104167
        k(   49) = (   0.1875000   0.1875000   0.0000000), wk =   0.0104167
        k(   50) = (   0.1875000   0.1875000   0.0987980), wk =   0.0208333
        k(   51) = (   0.1875000   0.2500000   0.0000000), wk =   0.0104167
        k(   52) = (   0.1875000   0.2500000   0.0987980), wk =   0.0208333
        k(   53) = (   0.1875000   0.3125000   0.0000000), wk =   0.0104167
        k(   54) = (   0.1875000   0.3125000   0.0987980), wk =   0.0208333
        k(   55) = (   0.1875000   0.3750000   0.0000000), wk =   0.0104167
        k(   56) = (   0.1875000   0.3750000   0.0987980), wk =   0.0208333
        k(   57) = (   0.1875000   0.4375000   0.0000000), wk =   0.0104167
        k(   58) = (   0.1875000   0.4375000   0.0987980), wk =   0.0208333
        k(   59) = (   0.1875000  -0.5000000   0.0000000), wk =   0.0052083
        k(   60) = (   0.1875000  -0.5000000   0.0987980), wk =   0.0104167
[...]
        k(  148) = (   0.4375000   0.2500000  -0.0987980), wk =   0.0208333
        k(  149) = (  -0.5000000   0.2500000   0.0000000), wk =   0.0052083
        k(  150) = (  -0.5000000   0.2500000  -0.0987980), wk =   0.0104167
        k(  151) = (   0.3750000   0.3125000   0.0000000), wk =   0.0104167
        k(  152) = (   0.3750000   0.3125000  -0.0987980), wk =   0.0208333
[...]

                       cryst. coord.
        k(    1) = (   0.0000000   0.0000000   0.0000000), wk =   0.0026042
        k(    2) = (   0.0000000   0.0000000   0.3333333), wk =   0.0052083
        k(    3) = (   0.0000000   0.0625000   0.0000000), wk =   0.0052083
        k(    4) = (   0.0000000   0.0625000   0.3333333), wk =   0.0104167
        k(    5) = (   0.0000000   0.1250000   0.0000000), wk =   0.0052083
        k(    6) = (   0.0000000   0.1250000   0.3333333), wk =   0.0104167
        k(    7) = (   0.0000000   0.1875000   0.0000000), wk =   0.0052083
        k(    8) = (   0.0000000   0.1875000   0.3333333), wk =   0.0104167
        k(    9) = (   0.0000000   0.2500000   0.0000000), wk =   0.0052083
        k(   10) = (   0.0000000   0.2500000   0.3333333), wk =   0.0104167
        k(   11) = (   0.0000000   0.3125000   0.0000000), wk =   0.0052083
        k(   12) = (   0.0000000   0.3125000   0.3333333), wk =   0.0104167
        k(   13) = (   0.0000000   0.3750000   0.0000000), wk =   0.0052083
        k(   14) = (   0.0000000   0.3750000   0.3333333), wk =   0.0104167
        k(   15) = (   0.0000000   0.4375000   0.0000000), wk =   0.0052083
        k(   16) = (   0.0000000   0.4375000   0.3333333), wk =   0.0104167
        k(   17) = (   0.0000000  -0.5000000   0.0000000), wk =   0.0026042
        k(   18) = (   0.0000000  -0.5000000   0.3333333), wk =   0.0052083
        k(   19) = (   0.0625000   0.0625000   0.0000000), wk =   0.0104167
        k(   20) = (   0.0625000   0.0625000   0.3333333), wk =   0.0208333
        k(   21) = (   0.0625000   0.1250000   0.0000000), wk =   0.0104167
        k(   22) = (   0.0625000   0.1250000   0.3333333), wk =   0.0208333
        k(   23) = (   0.0625000   0.1875000   0.0000000), wk =   0.0104167
        k(   24) = (   0.0625000   0.1875000   0.3333333), wk =   0.0208333
        k(   25) = (   0.0625000   0.2500000   0.0000000), wk =   0.0104167
        k(   26) = (   0.0625000   0.2500000   0.3333333), wk =   0.0208333
        k(   27) = (   0.0625000   0.3125000   0.0000000), wk =   0.0104167
        k(   28) = (   0.0625000   0.3125000   0.3333333), wk =   0.0208333
        k(   29) = (   0.0625000   0.3750000   0.0000000), wk =   0.0104167
        k(   30) = (   0.0625000   0.3750000   0.3333333), wk =   0.0208333
        k(   31) = (   0.0625000   0.4375000   0.0000000), wk =   0.0104167
        k(   32) = (   0.0625000   0.4375000   0.3333333), wk =   0.0208333
        k(   33) = (   0.0625000  -0.5000000   0.0000000), wk =   0.0052083
        k(   34) = (   0.0625000  -0.5000000   0.3333333), wk =   0.0104167
        k(   35) = (   0.1250000   0.1250000   0.0000000), wk =   0.0104167
        k(   36) = (   0.1250000   0.1250000   0.3333333), wk =   0.0208333
        k(   37) = (   0.1250000   0.1875000   0.0000000), wk =   0.0104167
        k(   38) = (   0.1250000   0.1875000   0.3333333), wk =   0.0208333
        k(   39) = (   0.1250000   0.2500000   0.0000000), wk =   0.0104167
        k(   40) = (   0.1250000   0.2500000   0.3333333), wk =   0.0208333
        k(   41) = (   0.1250000   0.3125000   0.0000000), wk =   0.0104167
        k(   42) = (   0.1250000   0.3125000   0.3333333), wk =   0.0208333
        k(   43) = (   0.1250000   0.3750000   0.0000000), wk =   0.0104167
        k(   44) = (   0.1250000   0.3750000   0.3333333), wk =   0.0208333
        k(   45) = (   0.1250000   0.4375000   0.0000000), wk =   0.0104167
        k(   46) = (   0.1250000   0.4375000   0.3333333), wk =   0.0208333
        k(   47) = (   0.1250000  -0.5000000   0.0000000), wk =   0.0052083
        k(   48) = (   0.1250000  -0.5000000   0.3333333), wk =   0.0104167
        k(   49) = (   0.1875000   0.1875000   0.0000000), wk =   0.0104167
        k(   50) = (   0.1875000   0.1875000   0.3333333), wk =   0.0208333
        k(   51) = (   0.1875000   0.2500000   0.0000000), wk =   0.0104167
        k(   52) = (   0.1875000   0.2500000   0.3333333), wk =   0.0208333
        k(   53) = (   0.1875000   0.3125000   0.0000000), wk =   0.0104167
        k(   54) = (   0.1875000   0.3125000   0.3333333), wk =   0.0208333
        k(   55) = (   0.1875000   0.3750000   0.0000000), wk =   0.0104167
        k(   56) = (   0.1875000   0.3750000   0.3333333), wk =   0.0208333
        k(   57) = (   0.1875000   0.4375000   0.0000000), wk =   0.0104167
        k(   58) = (   0.1875000   0.4375000   0.3333333), wk =   0.0208333
        k(   59) = (   0.1875000  -0.5000000   0.0000000), wk =   0.0052083
        k(   60) = (   0.1875000  -0.5000000   0.3333333), wk =   0.0104167
[...]
        k(  148) = (   0.4375000   0.2500000  -0.3333333), wk =   0.0208333
        k(  149) = (  -0.5000000   0.2500000   0.0000000), wk =   0.0052083
        k(  150) = (  -0.5000000   0.2500000  -0.3333333), wk =   0.0104167
        k(  151) = (   0.3750000   0.3125000   0.0000000), wk =   0.0104167
        k(  152) = (   0.3750000   0.3125000  -0.3333333), wk =   0.0208333
        k(  153) = (   0.4375000   0.3125000   0.0000000), wk =   0.0104167
        k(  154) = (   0.4375000   0.3125000  -0.3333333), wk =   0.0208333
        k(  155) = (  -0.5000000   0.3125000   0.0000000), wk =   0.0052083
        k(  156) = (  -0.5000000   0.3125000  -0.3333333), wk =   0.0104167
        k(  157) = (   0.4375000   0.3750000   0.0000000), wk =   0.0104167
        k(  158) = (   0.4375000   0.3750000  -0.3333333), wk =   0.0208333
        k(  159) = (  -0.5000000   0.3750000   0.0000000), wk =   0.0052083
        k(  160) = (  -0.5000000   0.3750000  -0.3333333), wk =   0.0104167
        k(  161) = (  -0.5000000   0.4375000   0.0000000), wk =   0.0052083
        k(  162) = (  -0.5000000   0.4375000  -0.3333333), wk =   0.0104167

     Largest allocated arrays     est. size (Mb)     dimensions
     Largest temporary arrays     est. size (Mb)     dimensions

     Initial potential from superposition of free atoms
     Check: negative starting charge=   -0.378662

     starting charge   71.99505, renormalised to   72.00000

     negative rho (up, down):  3.787E-01 0.000E+00
     Starting wfc are   68 randomized atomic wfcs

     Self-consistent Calculation

     iteration #  1     ecut=    45.00 Ry     beta=0.40
     Davidson diagonalization with overlap
     ethr =  1.00E-02,  avg # of iterations =  2.0

     Threshold (ethr) on eigenvalues was too large:
     Diagonalizing with lowered threshold

     Davidson diagonalization with overlap
     ethr =  2.07E-04,  avg # of iterations =  2.6

     negative rho (up, down):  3.864E-01 0.000E+00

     total energy              =    -640.00964818 Ry
     Harris-Foulkes estimate   =    -640.07545724 Ry
     estimated scf accuracy    <       0.15350355 Ry

[...]

     total energy              =    -640.02823843 Ry
     Harris-Foulkes estimate   =    -640.02823843 Ry
     estimated scf accuracy    <          2.5E-09 Ry

     iteration # 13     ecut=    45.00 Ry     beta=0.40
     Davidson diagonalization with overlap
     ethr =  3.42E-12,  avg # of iterations =  2.9

     negative rho (up, down):  3.998E-01 0.000E+00

     End of self-consistent calculation

          k = 0.0000 0.0000 0.0000 (  4655 PWs)   bands (ev):

   -52.9650 -52.9591 -52.9591 -52.9531 -19.5680 -19.5182 -19.5182 -19.5138
   -19.5138 -19.4361 -19.4361 -19.3594 -19.3594 -19.3551 -19.3551 -19.3006
     1.1787   2.2243   2.2243   3.8116   8.2480  10.7603  10.7603  12.1428
    12.3829  12.3829  12.4275  12.4276  12.8021  12.8022  12.9221  13.3961
    13.6798  13.6798  14.3859  14.3860  16.2164  16.5769  16.5769  16.9845
    17.7434  17.7484  17.7484

     occupation numbers
     1.0000   1.0000   1.0000   1.0000   1.0000   1.0000   1.0000   1.0000
     1.0000   1.0000   1.0000   1.0000   1.0000   1.0000   1.0000   1.0000
     1.0000   1.0000   1.0000   1.0000   1.0000   1.0000   1.0000   1.0000
     1.0000   1.0000   1.0000   1.0000   1.0000   1.0000   1.0000   1.0000
     1.0000   1.0000   1.0000   1.0000   0.0000   0.0000   0.0000   0.0000
     0.0000   0.0000   0.0000

[...]

          k =-0.5000-0.5000 0.0000 (  4724 PWs)   bands (ev):

[...]

          k = 0.4375 0.3750-0.0988 (  4704 PWs)   bands (ev):

[...]

          k =-0.5000 0.4375-0.0988 (  4698 PWs)   bands (ev):

   -52.9506 -52.9505 -52.9494 -52.9494 -19.6697 -19.6697 -19.6625 -19.6625
   -19.5008 -19.5008 -19.4944 -19.4944 -19.3873 -19.3873 -19.3654 -19.3653
     3.9676   3.9676   4.0718   4.0718   9.4739   9.4739   9.6827   9.6827
    10.1538  10.1539  10.4234  10.4234  12.0827  12.0827  12.1444  12.1444
    14.0395  14.0395  14.3044  14.3044  17.8645  17.8645  18.1958  18.1958
    18.3102  18.3103  18.5734

     occupation numbers
     1.0000   1.0000   1.0000   1.0000   1.0000   1.0000   1.0000   1.0000
     1.0000   1.0000   1.0000   1.0000   1.0000   1.0000   1.0000   1.0000
     1.0000   1.0000   1.0000   1.0000   1.0000   1.0000   1.0000   1.0000
     1.0000   1.0000   1.0000   1.0000   1.0000   1.0000   1.0000   1.0000
     1.0000   1.0000   1.0000   1.0000   0.0000   0.0000   0.0000   0.0000
     0.0000   0.0000   0.0000

     the Fermi energy is    15.2976 ev

!    total energy              =    -640.02823843 Ry
     Harris-Foulkes estimate   =    -640.02823843 Ry
     estimated scf accuracy    <          4.5E-10 Ry

     The total energy is the sum of the following terms:

     one-electron contribution =     -90.62090723 Ry
     hartree contribution      =      78.72140624 Ry
     xc contribution           =    -205.41389449 Ry
     ewald contribution        =    -422.71515713 Ry
     smearing contrib. (-TS)   =       0.00031418 Ry

     convergence has been achieved in  13 iterations

     Forces acting on atoms (Ry/au):

     negative rho (up, down):  3.998E-01 0.000E+00
     atom    1 type  2   force =     0.00000000    0.00000000   -0.00154975
     atom    2 type  2   force =     0.00000000    0.00000000   -0.00154701
     atom    3 type  2   force =     0.00000000    0.00000000   -0.00154918
     atom    4 type  2   force =     0.00000000    0.00000000   -0.00155097
     atom    5 type  1   force =     0.00000000    0.00000000    0.00154938
     atom    6 type  1   force =     0.00000000    0.00000000    0.00154992
     atom    7 type  1   force =     0.00000000    0.00000000    0.00155307
     atom    8 type  1   force =     0.00000000    0.00000000    0.00154454
     The non-local contrib.  to forces
     atom    1 type  2   force =     0.00000000    0.00000000    0.01197551
     atom    2 type  2   force =     0.00000000    0.00000000    0.01199077
     atom    3 type  2   force =     0.00000000    0.00000000    0.01197856
     atom    4 type  2   force =     0.00000000    0.00000000    0.01198383
     atom    5 type  1   force =     0.00000000    0.00000000   -0.00934896
     atom    6 type  1   force =     0.00000000    0.00000000   -0.00934523
     atom    7 type  1   force =     0.00000000    0.00000000   -0.00934342
     atom    8 type  1   force =     0.00000000    0.00000000   -0.00934959
     The ionic contribution  to forces
     atom    1 type  2   force =     0.00000000   -0.00000000   -0.16080511
     atom    2 type  2   force =    -0.00000000   -0.00000000   -0.16142812
     atom    3 type  2   force =    -0.00000000    0.00000000   -0.16129045
     atom    4 type  2   force =     0.00000000    0.00000000   -0.16167338
     atom    5 type  1   force =    -0.00000000    0.00000000    0.16146928
     atom    6 type  1   force =     0.00000000   -0.00000000    0.16123891
     atom    7 type  1   force =     0.00000000   -0.00000000    0.16130936
     atom    8 type  1   force =    -0.00000000   -0.00000000    0.16117951
     The local contribution  to forces
     atom    1 type  2   force =     0.00000000    0.00000000    0.14640162
     atom    2 type  2   force =    -0.00000000   -0.00000000    0.14708511
     atom    3 type  2   force =     0.00000000   -0.00000000    0.14693128
     atom    4 type  2   force =     0.00000000    0.00000000    0.14733348
     atom    5 type  1   force =    -0.00000000   -0.00000000   -0.14984751
     atom    6 type  1   force =     0.00000000    0.00000000   -0.14958051
     atom    7 type  1   force =    -0.00000000   -0.00000000   -0.14966519
     atom    8 type  1   force =    -0.00000000    0.00000000   -0.14953629
     The core correction contribution to forces
     atom    1 type  2   force =     0.00000000    0.00000000    0.00083194
     atom    2 type  2   force =     0.00000000   -0.00000000    0.00083262
     atom    3 type  2   force =     0.00000000   -0.00000000    0.00083193
     atom    4 type  2   force =     0.00000000   -0.00000000    0.00083193
     atom    5 type  1   force =    -0.00000000   -0.00000000   -0.00074602
     atom    6 type  1   force =    -0.00000000    0.00000000   -0.00074480
     atom    7 type  1   force =     0.00000000    0.00000000   -0.00074638
     atom    8 type  1   force =     0.00000000    0.00000000   -0.00074389
     The Hubbard contrib.    to forces
     atom    1 type  2   force =     0.00000000    0.00000000    0.00000000
     atom    2 type  2   force =     0.00000000    0.00000000    0.00000000
     atom    3 type  2   force =     0.00000000    0.00000000    0.00000000
     atom    4 type  2   force =     0.00000000    0.00000000    0.00000000
     atom    5 type  1   force =     0.00000000    0.00000000    0.00000000
     atom    6 type  1   force =     0.00000000    0.00000000    0.00000000
     atom    7 type  1   force =     0.00000000    0.00000000    0.00000000
     atom    8 type  1   force =     0.00000000    0.00000000    0.00000000
     The SCF correction term to forces
     atom    1 type  2   force =     0.00000000   -0.00000000    0.00004630
     atom    2 type  2   force =     0.00000000    0.00000000   -0.00002740
     atom    3 type  2   force =     0.00000000   -0.00000000   -0.00000049
     atom    4 type  2   force =     0.00000000    0.00000000   -0.00002683
     atom    5 type  1   force =    -0.00000000    0.00000000    0.00002260
     atom    6 type  1   force =    -0.00000000   -0.00000000   -0.00001844
     atom    7 type  1   force =    -0.00000000    0.00000000   -0.00000130
     atom    8 type  1   force =    -0.00000000   -0.00000000   -0.00000520

     Total force =     0.004382     Total SCF correction =     0.000067

     entering subroutine stress ...

     negative rho (up, down):  3.998E-01 0.000E+00
          total   stress  (Ry/bohr**3)                   (kbar)     P=   -0.79
  -0.00000908   0.00000000   0.00000000         -1.34      0.00      0.00
   0.00000000  -0.00000910   0.00000000          0.00     -1.34      0.00
   0.00000000   0.00000000   0.00000214          0.00      0.00      0.32

     kinetic stress (kbar)  19366.15      0.00      0.00
                                0.00  19366.15      0.00
                                0.00      0.00  19593.31

     local   stress (kbar)  15709.85     -0.00      0.00
                               -0.00  15709.87     -0.00
                                0.00     -0.00  16009.76

     nonloc. stress (kbar) -10980.05      0.00      0.00
                                0.00 -10980.05      0.00
                                0.00      0.00 -11008.63

     hartree stress (kbar)   4121.86     -0.00      0.00
                               -0.00   4121.87     -0.00
                                0.00     -0.00   4345.93

     exc-cor stress (kbar)  16382.64      0.00     -0.00
                                0.00  16382.64      0.00
                               -0.00      0.00  16382.25

     corecor stress (kbar) -22309.76     -0.00      0.00
                               -0.00 -22309.76     -0.00
                                0.00     -0.00 -22302.91

     ewald   stress (kbar) -22292.03      0.00     -0.00
                                0.00 -22292.05      0.00
                               -0.00      0.00 -23019.40

     hubbard stress (kbar)      0.00      0.00      0.00
                                0.00      0.00      0.00
                                0.00      0.00      0.00

     london  stress (kbar)      0.00      0.00      0.00
                                0.00      0.00      0.00
                                0.00      0.00      0.00

     XDM     stress (kbar)      0.00      0.00      0.00
                                0.00      0.00      0.00
                                0.00      0.00      0.00

     dft-nl  stress (kbar)      0.00      0.00      0.00
                                0.00      0.00      0.00
                                0.00      0.00      0.00

     Writing output data file aiida.save

     General routines

     Parallel routines

   This run was terminated on:  11:53:58  23Nov2024

   JOB DONE.