     Program PWSCF v.5.2.1 (svn rev. 11758) starts on 21Oct2024 at 19:24: 3

     Current dimensions of program PWSCF are:
     Max number of different atomic species (ntypx) = 10
     Max number of k-points (npk) =  40000
     Max angular momentum in pseudopotentials (lmaxx) =  3

     Subspace diagonalization in iterative solution of the eigenvalue problem:
     a serial algorithm will be used

     Found symmetry operation: I + (  0.5000 -0.5000 -0.5000)
     This is a supercell, fractional translations are disabled

     bravais-lattice index     =            0
     lattice parameter (alat)  =       6.5566  a.u.
     unit-cell volume          =     953.3184 (a.u.)^3
     number of atoms/cell      =            8
     number of atomic types    =            2
     number of electrons       =        72.00
     number of Kohn-Sham states=           43
     kinetic-energy cutoff     =      45.0000  Ry
     charge density cutoff     =     360.0000  Ry
     convergence threshold     =      1.6E-09
     mixing beta               =       0.4000
     number of iterations used =            8  plain     mixing
     Exchange-correlation      = SLA  PW   PSX  PSC ( 1  4 10  8 0 0)
     nstep                     =           50

     celldm(1)=   6.556620  celldm(2)=   0.000000  celldm(3)=   0.000000
     celldm(4)=   0.000000  celldm(5)=   0.000000  celldm(6)=   0.000000

     crystal axes: (cart. coord. in units of alat)
               a(1) = (   1.000000   0.000000   0.000000 )
               a(2) = (   0.000000   1.000000   0.000000 )
               a(3) = (   0.000000   0.000000   3.382189 )

     reciprocal axes: (cart. coord. in units 2 pi/alat)
               b(1) = (  1.000000  0.000000  0.000000 )
               b(2) = (  0.000000  1.000000  0.000000 )
               b(3) = (  0.000000  0.000000  0.295667 )

     PseudoPot. # 1 for As read from file:
     ./pseudo/As.pbesol-n-rrkjus_psl.0.2.UPF
     MD5 check sum: 1aa86e6aa4f77befd3aa87cac6788838
     Pseudo is Ultrasoft + core correction, Zval =  5.0
     Generated using "atomic" code by A. Dal Corso  v.6.0 svn rev. 13079
     Using radial grid of 1209 points,  4 beta functions with:
                l(1) =   0
                l(2) =   0
                l(3) =   1
                l(4) =   1
     Q(r) pseudized with 0 coefficients

     PseudoPot. # 2 for Ta read from file:
     ./pseudo/ta_pbesol_v1.uspp.F.UPF
     MD5 check sum: 5dd23d6859724cbb2c0d9b6294d5f84c
     Pseudo is Ultrasoft + core correction, Zval = 13.0
     Generated by new atomic code, or converted to UPF format
     Using radial grid of  921 points,  7 beta functions with:
                l(1) =   0
                l(2) =   0
                l(3) =   1
                l(4) =   1
                l(5) =   2
                l(6) =   2
                l(7) =   3
     Q(r) pseudized with  6 coefficients,  rinner =    1.300   1.300   1.300
                                                       1.300   1.300   1.300
                                                       1.300

     atomic species   valence    mass     pseudopotential
        As             5.00    74.92160     As( 1.00)
        Ta            13.00   180.94788     Ta( 1.00)

      4 Sym. Ops. (no inversion) found

                                    s                        frac. trans.

      isym =  1     identity

 cryst.   s( 1) = (     1          0          0      )
                  (     0          1          0      )
                  (     0          0          1      )

 cart.    s( 1) = (  1.0000000  0.0000000  0.0000000 )
                  (  0.0000000  1.0000000  0.0000000 )
                  (  0.0000000  0.0000000  1.0000000 )

      isym =  2     180 deg rotation - cart. axis [0,0,1]

[...]

      isym =  3     inv. 180 deg rotation - cart. axis [0,1,0]

[...]

      isym =  4     inv. 180 deg rotation - cart. axis [1,0,0]

 cryst.   s( 4) = (    -1          0          0      )
                  (     0          1          0      )
                  (     0          0          1      )

 cart.    s( 4) = ( -1.0000000  0.0000000  0.0000000 )
                  (  0.0000000  1.0000000  0.0000000 )
                  (  0.0000000  0.0000000  1.0000000 )

     point group C_2v (mm2)
     there are  4 classes
     the character table:

       E     C2    s_v   s_v'
A_1    1.00  1.00  1.00  1.00
A_2    1.00  1.00 -1.00 -1.00
B_1    1.00 -1.00  1.00 -1.00
B_2    1.00 -1.00 -1.00  1.00

     the symmetry operations in each class and the name of the first element:

     E        1
          identity
     C2       2
          180 deg rotation - cart. axis [0,0,1]
     s_v      3
          inv. 180 deg rotation - cart. axis [0,1,0]
     s_v'     4
          inv. 180 deg rotation - cart. axis [1,0,0]

   Cartesian axes

     site n.     atom                  positions (alat units)
         1           Ta  tau(   1) = (   0.5000000   0.0000000   0.8453308  )
         2           Ta  tau(   2) = (   0.5000000   0.5000000   3.3819725  )
         3           Ta  tau(   3) = (   0.0000000   0.5000000   2.5364252  )
         4           Ta  tau(   4) = (   0.0000000   0.0000000   1.6908780  )
         5           As  tau(   5) = (   0.0000000   0.5000000   0.5674095  )
         6           As  tau(   6) = (   0.0000000   0.0000000   3.1040512  )
         7           As  tau(   7) = (   0.5000000   0.0000000   2.2585040  )
         8           As  tau(   8) = (   0.5000000   0.5000000   1.4129568  )

   Crystallographic axes

     site n.     atom                  positions (cryst. coord.)
         1           Ta  tau(   1) = (  0.5000000  0.0000000  0.2499360  )
         2           Ta  tau(   2) = (  0.5000000  0.5000000  0.9999360  )
         3           Ta  tau(   3) = (  0.0000000  0.5000000  0.7499360  )
         4           Ta  tau(   4) = (  0.0000000  0.0000000  0.4999360  )
         5           As  tau(   5) = (  0.0000000  0.5000000  0.1677640  )
         6           As  tau(   6) = (  0.0000000  0.0000000  0.9177640  )
         7           As  tau(   7) = (  0.5000000  0.0000000  0.6677640  )
         8           As  tau(   8) = (  0.5000000  0.5000000  0.4177640  )

     number of k points=   162  Marzari-Vanderbilt smearing, width (Ry)=  0.0147
                       cart. coord. in units 2pi/alat
        k(    1) = (   0.0000000   0.0000000   0.0000000), wk =   0.0026042
        k(    2) = (   0.0000000   0.0000000   0.0985555), wk =   0.0052083
        k(    3) = (   0.0000000   0.0625000   0.0000000), wk =   0.0052083
        k(    4) = (   0.0000000   0.0625000   0.0985555), wk =   0.0104167
        k(    5) = (   0.0000000   0.1250000   0.0000000), wk =   0.0052083
        k(    6) = (   0.0000000   0.1250000   0.0985555), wk =   0.0104167
        k(    7) = (   0.0000000   0.1875000   0.0000000), wk =   0.0052083
        k(    8) = (   0.0000000   0.1875000   0.0985555), wk =   0.0104167
        k(    9) = (   0.0000000   0.2500000   0.0000000), wk =   0.0052083
        k(   10) = (   0.0000000   0.2500000   0.0985555), wk =   0.0104167
        k(   11) = (   0.0000000   0.3125000   0.0000000), wk =   0.0052083
        k(   12) = (   0.0000000   0.3125000   0.0985555), wk =   0.0104167
        k(   13) = (   0.0000000   0.3750000   0.0000000), wk =   0.0052083
        k(   14) = (   0.0000000   0.3750000   0.0985555), wk =   0.0104167
        k(   15) = (   0.0000000   0.4375000   0.0000000), wk =   0.0052083
        k(   16) = (   0.0000000   0.4375000   0.0985555), wk =   0.0104167
        k(   17) = (   0.0000000  -0.5000000   0.0000000), wk =   0.0026042
        k(   18) = (   0.0000000  -0.5000000   0.0985555), wk =   0.0052083
        k(   19) = (   0.0625000   0.0625000   0.0000000), wk =   0.0104167
        k(   20) = (   0.0625000   0.0625000   0.0985555), wk =   0.0208333
        k(   21) = (   0.0625000   0.1250000   0.0000000), wk =   0.0104167
        k(   22) = (   0.0625000   0.1250000   0.0985555), wk =   0.0208333
        k(   23) = (   0.0625000   0.1875000   0.0000000), wk =   0.0104167
        k(   24) = (   0.0625000   0.1875000   0.0985555), wk =   0.0208333
        k(   25) = (   0.0625000   0.2500000   0.0000000), wk =   0.0104167
        k(   26) = (   0.0625000   0.2500000   0.0985555), wk =   0.0208333
        k(   27) = (   0.0625000   0.3125000   0.0000000), wk =   0.0104167
        k(   28) = (   0.0625000   0.3125000   0.0985555), wk =   0.0208333
        k(   29) = (   0.0625000   0.3750000   0.0000000), wk =   0.0104167
        k(   30) = (   0.0625000   0.3750000   0.0985555), wk =   0.0208333
        k(   31) = (   0.0625000   0.4375000   0.0000000), wk =   0.0104167
        k(   32) = (   0.0625000   0.4375000   0.0985555), wk =   0.0208333
        k(   33) = (   0.0625000  -0.5000000   0.0000000), wk =   0.0052083
        k(   34) = (   0.0625000  -0.5000000   0.0985555), wk =   0.0104167
        k(   35) = (   0.1250000   0.1250000   0.0000000), wk =   0.0104167
        k(   36) = (   0.1250000   0.1250000   0.0985555), wk =   0.0208333
        k(   37) = (   0.1250000   0.1875000   0.0000000), wk =   0.0104167
        k(   38) = (   0.1250000   0.1875000   0.0985555), wk =   0.0208333
        k(   39) = (   0.1250000   0.2500000   0.0000000), wk =   0.0104167
        k(   40) = (   0.1250000   0.2500000   0.0985555), wk =   0.0208333
        k(   41) = (   0.1250000   0.3125000   0.0000000), wk =   0.0104167
        k(   42) = (   0.1250000   0.3125000   0.0985555), wk =   0.0208333
        k(   43) = (   0.1250000   0.3750000   0.0000000), wk =   0.0104167
        k(   44) = (   0.1250000   0.3750000   0.0985555), wk =   0.0208333
        k(   45) = (   0.1250000   0.4375000   0.0000000), wk =   0.0104167
        k(   46) = (   0.1250000   0.4375000   0.0985555), wk =   0.0208333
        k(   47) = (   0.1250000  -0.5000000   0.0000000), wk =   0.0052083
        k(   48) = (   0.1250000  -0.5000000   0.0985555), wk =   0.0104167
        k(   49) = (   0.1875000   0.1875000   0.0000000), wk =   0.0104167
        k(   50) = (   0.1875000   0.1875000   0.0985555), wk =   0.0208333
        k(   51) = (   0.1875000   0.2500000   0.0000000), wk =   0.0104167
        k(   52) = (   0.1875000   0.2500000   0.0985555), wk =   0.0208333
        k(   53) = (   0.1875000   0.3125000   0.0000000), wk =   0.0104167
        k(   54) = (   0.1875000   0.3125000   0.0985555), wk =   0.0208333
        k(   55) = (   0.1875000   0.3750000   0.0000000), wk =   0.0104167
        k(   56) = (   0.1875000   0.3750000   0.0985555), wk =   0.0208333
        k(   57) = (   0.1875000   0.4375000   0.0000000), wk =   0.0104167
        k(   58) = (   0.1875000   0.4375000   0.0985555), wk =   0.0208333
        k(   59) = (   0.1875000  -0.5000000   0.0000000), wk =   0.0052083
        k(   60) = (   0.1875000  -0.5000000   0.0985555), wk =   0.0104167
[...]
        k(  148) = (   0.4375000   0.2500000  -0.0985555), wk =   0.0208333
        k(  149) = (  -0.5000000   0.2500000   0.0000000), wk =   0.0052083
        k(  150) = (  -0.5000000   0.2500000  -0.0985555), wk =   0.0104167
        k(  151) = (   0.3750000   0.3125000   0.0000000), wk =   0.0104167
[...]
     atom    1 type  2   force =     0.00000000    0.00000000    0.12760501
     atom    2 type  2   force =     0.00000000    0.00000000    0.12744125
     atom    3 type  2   force =     0.00000000   -0.00000000    0.12756901
     atom    4 type  2   force =    -0.00000000    0.00000000    0.12752396
     atom    5 type  1   force =    -0.00000000   -0.00000000   -0.12885779
     atom    6 type  1   force =     0.00000000   -0.00000000   -0.12888938
     atom    7 type  1   force =    -0.00000000    0.00000000   -0.12885690
     atom    8 type  1   force =     0.00000000   -0.00000000   -0.12886025
     The core correction contribution to forces
     atom    1 type  2   force =     0.00000000    0.00000000    0.00071396
     atom    2 type  2   force =    -0.00000000   -0.00000000    0.00071263
     atom    3 type  2   force =    -0.00000000   -0.00000000    0.00071404
     atom    4 type  2   force =     0.00000000    0.00000000    0.00071235
     atom    5 type  1   force =    -0.00000000   -0.00000000   -0.00023806
     atom    6 type  1   force =     0.00000000    0.00000000   -0.00023896
     atom    7 type  1   force =     0.00000000   -0.00000000   -0.00023813
     atom    8 type  1   force =     0.00000000    0.00000000   -0.00023890
     The Hubbard contrib.    to forces
     atom    1 type  2   force =     0.00000000    0.00000000    0.00000000
     atom    2 type  2   force =     0.00000000    0.00000000    0.00000000
     atom    3 type  2   force =     0.00000000    0.00000000    0.00000000
     atom    4 type  2   force =     0.00000000    0.00000000    0.00000000
     atom    5 type  1   force =     0.00000000    0.00000000    0.00000000
     atom    6 type  1   force =     0.00000000    0.00000000    0.00000000
     atom    7 type  1   force =     0.00000000    0.00000000    0.00000000
     atom    8 type  1   force =     0.00000000    0.00000000    0.00000000
     The SCF correction term to forces
     atom    1 type  2   force =     0.00000000    0.00000000   -0.00008301
     atom    2 type  2   force =     0.00000000   -0.00000000    0.00009916
     atom    3 type  2   force =     0.00000000    0.00000000   -0.00004385
     atom    4 type  2   force =     0.00000000   -0.00000000    0.00001420
     atom    5 type  1   force =     0.00000000   -0.00000000   -0.00000792
     atom    6 type  1   force =    -0.00000000    0.00000000    0.00002015
     atom    7 type  1   force =     0.00000000    0.00000000   -0.00001014
     atom    8 type  1   force =    -0.00000000    0.00000000   -0.00000986

     Total force =     0.000875     Total SCF correction =     0.000140
     SCF correction compared to forces is large: reduce conv_thr to get better values

     entering subroutine stress ...

     negative rho (up, down):  3.992E-01 0.000E+00
          total   stress  (Ry/bohr**3)                   (kbar)     P=  -64.93
  -0.00045479   0.00000000   0.00000000        -66.90      0.00      0.00
   0.00000000  -0.00045480   0.00000000          0.00    -66.90      0.00
   0.00000000   0.00000000  -0.00041458          0.00      0.00    -60.99

     kinetic stress (kbar)  18610.77      0.00      0.00
                                0.00  18610.77      0.00
                                0.00      0.00  18828.69

     local   stress (kbar)  14750.23     -0.00     -0.00
                               -0.00  14750.23     -0.00
                               -0.00     -0.00  15130.43

     nonloc. stress (kbar) -10566.06      0.00      0.00
                                0.00 -10566.06      0.00
                                0.00      0.00 -10594.64

     hartree stress (kbar)   4074.80     -0.00     -0.00
                               -0.00   4074.80      0.00
                               -0.00      0.00   4251.24

     exc-cor stress (kbar)  15818.00      0.00      0.00
                                0.00  15818.00      0.00
                                0.00      0.00  15817.65

     corecor stress (kbar) -21518.41      0.00     -0.00
                                0.00 -21518.41      0.00
                               -0.00      0.00 -21512.32

     ewald   stress (kbar) -21236.23     -0.00      0.00
                               -0.00 -21236.23      0.00
                                0.00      0.00 -21982.03

     hubbard stress (kbar)      0.00      0.00      0.00
                                0.00      0.00      0.00
                                0.00      0.00      0.00

     london  stress (kbar)      0.00      0.00      0.00
                                0.00      0.00      0.00
                                0.00      0.00      0.00

     XDM     stress (kbar)      0.00      0.00      0.00
                                0.00      0.00      0.00
                                0.00      0.00      0.00

     dft-nl  stress (kbar)      0.00      0.00      0.00
                                0.00      0.00      0.00
                                0.00      0.00      0.00

     BFGS Geometry Optimization

     number of scf cycles    =   1
     number of bfgs steps    =   0

     energy   new            =    -640.0217361556 Ry

     new trust radius        =       0.0003223071 bohr
     new conv_thr            =       0.0000000016 Ry

ATOMIC_POSITIONS (crystal)
Ta       0.500000000   0.000000000   0.249950534
Ta       0.500000000   0.500000000   0.999949259
Ta       0.000000000   0.500000000   0.749950267
Ta       0.000000000   0.000000000   0.499949731
As       0.000000000   0.500000000   0.167750140
As       0.000000000   0.000000000   0.917749860
As       0.500000000   0.000000000   0.667750107
As       0.500000000   0.500000000   0.417750100

     Check: negative starting charge=   -0.378193
     NEW-OLD atomic charge density approx. for the potential
     Check: negative starting charge=   -0.378197

[...]

     number of scf cycles    =   2
     number of bfgs steps    =   1

     energy   old            =    -640.0217361556 Ry
     energy   new            =    -640.0217367454 Ry

     CASE: energy  _new < energy  _old

     new trust radius        =       0.0003545378 bohr
     new conv_thr            =            1.6E-11 Ry

ATOMIC_POSITIONS (crystal)
Ta       0.500000000   0.000000000   0.249963993
Ta       0.500000000   0.500000000   0.999965211
Ta       0.000000000   0.500000000   0.749965001
Ta       0.000000000   0.000000000   0.499965719
As       0.000000000   0.500000000   0.167734308
As       0.000000000   0.000000000   0.917735402
As       0.500000000   0.000000000   0.667734784
As       0.500000000   0.500000000   0.417735583

     Check: negative starting charge=   -0.378197
     NEW-OLD atomic charge density approx. for the potential
     Check: negative starting charge=   -0.378200

[...]

     Self-consistent Calculation

[...]

     Threshold (ethr) on eigenvalues was too large:
     Diagonalizing with lowered threshold

     Davidson diagonalization with overlap
     ethr =  1.17E-10,  avg # of iterations =  3.9

[...]

     total energy              =    -640.02173699 Ry
     Harris-Foulkes estimate   =    -640.02173699 Ry
     estimated scf accuracy    <          3.5E-11 Ry

     iteration #  9     ecut=    45.00 Ry     beta=0.40
     Davidson diagonalization with overlap
     ethr =  1.00E-13,  avg # of iterations =  1.0

     negative rho (up, down):  3.992E-01 0.000E+00

     End of self-consistent calculation

[...]

          k = 0.4375 0.3750-0.0986 (  4872 PWs)   bands (ev):

[...]

          k =-0.5000 0.4375-0.0986 (  4858 PWs)   bands (ev):

   -53.7005 -53.7005 -53.6995 -53.6995 -20.3690 -20.3690 -20.3628 -20.3628
   -20.2140 -20.2140 -20.2083 -20.2083 -20.1127 -20.1127 -20.0936 -20.0936
     3.4561   3.4561   3.5582   3.5582   8.9764   8.9764   9.2093   9.2093
     9.6378   9.6378   9.9215   9.9215  11.5062  11.5062  11.5723  11.5723
    13.4387  13.4387  13.6928  13.6928  17.0994  17.0994  17.4115  17.4115
    17.5164  17.5164  17.7632

     occupation numbers
     1.0000   1.0000   1.0000   1.0000   1.0000   1.0000   1.0000   1.0000
     1.0000   1.0000   1.0000   1.0000   1.0000   1.0000   1.0000   1.0000
     1.0000   1.0000   1.0000   1.0000   1.0000   1.0000   1.0000   1.0000
     1.0000   1.0000   1.0000   1.0000   1.0000   1.0000   1.0000   1.0000
     1.0000   1.0000   1.0000   1.0000   0.0000   0.0000   0.0000   0.0000
     0.0000   0.0000   0.0000

     the Fermi energy is    14.6572 ev

!    total energy              =    -640.02173699 Ry
     Harris-Foulkes estimate   =    -640.02173699 Ry
     estimated scf accuracy    <          7.3E-12 Ry

     The total energy is the sum of the following terms:

     one-electron contribution =     -97.58362555 Ry
     hartree contribution      =      80.36449761 Ry
     xc contribution           =    -205.10470643 Ry
     ewald contribution        =    -417.69832335 Ry
     smearing contrib. (-TS)   =       0.00042072 Ry

     convergence has been achieved in   9 iterations

     Forces acting on atoms (Ry/au):

     negative rho (up, down):  3.992E-01 0.000E+00
     atom    1 type  2   force =     0.00000000    0.00000000    0.00002143
     atom    2 type  2   force =     0.00000000    0.00000000    0.00001162
     atom    3 type  2   force =     0.00000000    0.00000000    0.00001488
     atom    4 type  2   force =     0.00000000    0.00000000    0.00000960
     atom    5 type  1   force =     0.00000000    0.00000000   -0.00001083
     atom    6 type  1   force =     0.00000000    0.00000000   -0.00001674
     atom    7 type  1   force =     0.00000000    0.00000000   -0.00001067
     atom    8 type  1   force =     0.00000000    0.00000000   -0.00001930
     The non-local contrib.  to forces
     atom    1 type  2   force =     0.00000000    0.00000000    0.01115589
     atom    2 type  2   force =     0.00000000    0.00000000    0.01115126
     atom    3 type  2   force =     0.00000000    0.00000000    0.01115099
     atom    4 type  2   force =     0.00000000    0.00000000    0.01114748
     atom    5 type  1   force =     0.00000000    0.00000000   -0.01011215
     atom    6 type  1   force =     0.00000000    0.00000000   -0.01011459
     atom    7 type  1   force =     0.00000000    0.00000000   -0.01011180
     atom    8 type  1   force =     0.00000000    0.00000000   -0.01011638
     The ionic contribution  to forces
     atom    1 type  2   force =    -0.00000000    0.00000000   -0.14068513
     atom    2 type  2   force =     0.00000000    0.00000000   -0.14129498
     atom    3 type  2   force =    -0.00000000    0.00000000   -0.14115999
     atom    4 type  2   force =    -0.00000000   -0.00000000   -0.14153505
     atom    5 type  1   force =     0.00000000   -0.00000000    0.14133521
     atom    6 type  1   force =    -0.00000000   -0.00000000    0.14110972
     atom    7 type  1   force =     0.00000000   -0.00000000    0.14117877
     atom    8 type  1   force =     0.00000000    0.00000000    0.14105144
     The local contribution  to forces
     atom    1 type  2   force =     0.00000000    0.00000000    0.12884008
     atom    2 type  2   force =     0.00000000    0.00000000    0.12944565
     atom    3 type  2   force =     0.00000000    0.00000000    0.12930709
     atom    4 type  2   force =     0.00000000    0.00000000    0.12968444
     atom    5 type  1   force =    -0.00000000   -0.00000000   -0.13093377
     atom    6 type  1   force =    -0.00000000    0.00000000   -0.13071108
     atom    7 type  1   force =    -0.00000000    0.00000000   -0.13078005
     atom    8 type  1   force =     0.00000000   -0.00000000   -0.13065450
     The core correction contribution to forces
     atom    1 type  2   force =     0.00000000    0.00000000    0.00071325
     atom    2 type  2   force =    -0.00000000   -0.00000000    0.00071312
     atom    3 type  2   force =     0.00000000    0.00000000    0.00071332
     atom    4 type  2   force =     0.00000000    0.00000000    0.00071285
     atom    5 type  1   force =     0.00000000    0.00000000   -0.00030015
     atom    6 type  1   force =     0.00000000    0.00000000   -0.00029916
     atom    7 type  1   force =    -0.00000000    0.00000000   -0.00030024
     atom    8 type  1   force =     0.00000000    0.00000000   -0.00029827
     The Hubbard contrib.    to forces
     atom    1 type  2   force =     0.00000000    0.00000000    0.00000000
     atom    2 type  2   force =     0.00000000    0.00000000    0.00000000
     atom    3 type  2   force =     0.00000000    0.00000000    0.00000000
     atom    4 type  2   force =     0.00000000    0.00000000    0.00000000
     atom    5 type  1   force =     0.00000000    0.00000000    0.00000000
     atom    6 type  1   force =     0.00000000    0.00000000    0.00000000
     atom    7 type  1   force =     0.00000000    0.00000000    0.00000000
     atom    8 type  1   force =     0.00000000    0.00000000    0.00000000
     The SCF correction term to forces
     atom    1 type  2   force =    -0.00000000    0.00000000   -0.00000250
     atom    2 type  2   force =    -0.00000000    0.00000000   -0.00000328
     atom    3 type  2   force =     0.00000000    0.00000000    0.00000362
     atom    4 type  2   force =     0.00000000    0.00000000    0.00000004
     atom    5 type  1   force =    -0.00000000   -0.00000000    0.00000017
     atom    6 type  1   force =    -0.00000000    0.00000000   -0.00000148
     atom    7 type  1   force =    -0.00000000   -0.00000000    0.00000280
     atom    8 type  1   force =     0.00000000    0.00000000   -0.00000144

     Total force =     0.000042     Total SCF correction =     0.000006
     SCF correction compared to forces is large: reduce conv_thr to get better values

     entering subroutine stress ...

     negative rho (up, down):  3.992E-01 0.000E+00
          total   stress  (Ry/bohr**3)                   (kbar)     P=  -64.91
  -0.00045523   0.00000000   0.00000000        -66.97      0.00      0.00
   0.00000000  -0.00045526   0.00000000          0.00    -66.97      0.00
   0.00000000   0.00000000  -0.00041318          0.00      0.00    -60.78

     kinetic stress (kbar)  18610.84      0.00      0.00
                                0.00  18610.84      0.00
                                0.00      0.00  18828.61

     local   stress (kbar)  14753.42     -0.00      0.00
                               -0.00  14753.43     -0.00
                                0.00     -0.00  15123.88

     nonloc. stress (kbar) -10566.03      0.00      0.00
                                0.00 -10566.02      0.00
                                0.00      0.00 -10594.71

     hartree stress (kbar)   4073.99     -0.00     -0.00
                               -0.00   4074.00      0.00
                               -0.00      0.00   4252.93

     exc-cor stress (kbar)  15817.99      0.00      0.00
                                0.00  15817.99     -0.00
                                0.00     -0.00  15817.65

     corecor stress (kbar) -21518.39     -0.00     -0.00
                               -0.00 -21518.39     -0.00
                               -0.00     -0.00 -21512.36

     ewald   stress (kbar) -21238.78      0.00      0.00
                                0.00 -21238.81      0.00
                                0.00      0.00 -21976.78

     hubbard stress (kbar)      0.00      0.00      0.00
                                0.00      0.00      0.00
                                0.00      0.00      0.00

     london  stress (kbar)      0.00      0.00      0.00
                                0.00      0.00      0.00
                                0.00      0.00      0.00

     XDM     stress (kbar)      0.00      0.00      0.00
                                0.00      0.00      0.00
                                0.00      0.00      0.00

     dft-nl  stress (kbar)      0.00      0.00      0.00
                                0.00      0.00      0.00
                                0.00      0.00      0.00

     bfgs converged in   3 scf cycles and   2 bfgs steps
     (criteria: energy <  8.0E-05, force <  1.0E-04)

     End of BFGS Geometry Optimization

     Final energy   =    -640.0217369885 Ry
Begin final coordinates

ATOMIC_POSITIONS (crystal)
Ta       0.500000000   0.000000000   0.249963993
Ta       0.500000000   0.500000000   0.999965211
Ta       0.000000000   0.500000000   0.749965001
Ta       0.000000000   0.000000000   0.499965719
As       0.000000000   0.500000000   0.167734308
As       0.000000000   0.000000000   0.917735402
As       0.500000000   0.000000000   0.667734784
As       0.500000000   0.500000000   0.417735583
End final coordinates

     General routines

     Parallel routines

   This run was terminated on:  21:18: 5  21Oct2024

   JOB DONE.